Initial structure (after lattice optimization)
  1.0
    49.003941506185338 0.0 0.0
    -24.501970753092669 42.43865822992316 0.0
    0.0 0.0 13.46023501784716
   C
  1588
Cartesian
  0.0 0.0 5.0
  46.905535950504859 1.2827806014082568 5.0
  44.80713039482438 2.5655612028165137 5.0
  42.7087248391439 3.848341804224771 5.0
  40.61031928346341 5.131122405633027 5.0
  38.51191372778293 6.413903007041284 5.0
  36.413508172102449 7.696683608449542 5.0
  34.31510261642197 8.979464209857797 5.0
  32.21669706074149 10.262244811266055 5.0
  30.118291505061014 11.545025412674314 5.0
  28.019885949380528 12.827806014082569 5.0
  25.92148039370005 14.110586615490825 5.0
  23.823074838019566 15.393367216899084 5.0
  21.724669282339087 16.67614781830734 5.0
  19.62626372665861 17.958928419715595 5.0
  17.527858170978129 19.241709021123854 5.0
  15.42945261529765 20.52448962253211 5.0
  13.331047059617167 21.807270223940365 5.0
  11.232641503936684 23.090050825348628 5.0
  9.134235948256207 24.37283142675688 5.0
  7.035830392575724 25.655612028165139 5.0
  4.9374248368952469 26.938392629573394 5.0
  2.839019281214764 28.22117323098165 5.0
  0.7406137255342848 29.503953832389909 5.0
  -1.3577918301462014 30.786734433798168 5.0
  -3.456197385826682 32.06951503520642 5.0
  -5.554602941507163 33.35229563661468 5.0
  -7.653008497187635 34.63507623802293 5.0
  -9.751414052868118 35.91785683943119 5.0
  -11.849819608548599 37.20063744083945 5.0
  -13.948225164229079 38.483418042247709 5.0
  -16.046630719909559 39.76619864365596 5.0
  -18.145036275590038 41.04897924506422 5.0
  -20.243441831270517 42.33175984647248 5.0
  2.1601233661416678 1.1758822179575679 5.0
  0.06171781046118707 2.458662819365827 5.0
  -2.036687745219294 3.7414434207740867 5.0
  44.86884820528556 5.024224022182336 5.0
  42.77044264960508 6.307004623590595 5.0
  40.67203709392459 7.589785224998855 5.0
  38.573631538244118 8.872565826407115 5.0
  36.47522598256365 10.155346427815374 5.0
  34.376820426883167 11.438127029223625 5.0
  32.27841487120267 12.720907630631884 5.0
  30.180009315522196 14.003688232040134 5.0
  28.08160375984172 15.286468833448393 5.0
  25.983198204161235 16.56924943485665 5.0
  23.884792648480749 17.85203003626491 5.0
  21.78638709280026 19.13481063767317 5.0
  19.687981537119798 20.41759123908142 5.0
  17.589575981439308 21.70037184048968 5.0
  15.491170425758835 22.98315244189794 5.0
  13.392764870078345 24.265933043306199 5.0
  11.294359314397868 25.548713644714448 5.0
  9.1959537587174 26.831494246122707 5.0
  7.097548203036901 28.114274847530959 5.0
  4.999142647356432 29.397055448939218 5.0
  2.9007370916759465 30.679836050347487 5.0
  0.8023315359954708 31.962616651755736 5.0
  -1.296074019685019 33.24539725316399 5.0
  -3.3944795753654874 34.52817785457224 5.0
  -5.492885131045977 35.810958455980507 5.0
  -7.591290686726447 37.09373905738876 5.0
  -9.689696242406939 38.37651965879702 5.0
  -11.788101798087404 39.65930026020527 5.0
  -13.886507353767874 40.94208086161353 5.0
  -15.984912909448365 42.22486146302179 5.0
  6.4186522879638059 1.0689838345068766 5.0
  4.320246732283335 2.3517644359151359 5.0
  2.221841176602866 3.634545037323395 5.0
  0.12343562092237415 4.917325638731654 5.0
  -1.9749699347581176 6.200106240139914 5.0
  -4.073375490438588 7.482886841548173 5.0
  42.83216046006629 8.765667442956433 5.0
  40.73375490438578 10.048448044364673 5.0
  38.63534934870529 11.331228645772932 5.0
  36.536943793024828 12.61400924718119 5.0
  34.43853823734435 13.896789848589452 5.0
  32.34013268166384 15.17957044999771 5.0
  30.241727125983365 16.46235105140595 5.0
  28.143321570302903 17.74513165281423 5.0
  26.04491601462243 19.02791225422249 5.0
  23.946510458941967 20.310692855630749 5.0
  21.84810490326144 21.59347345703899 5.0
  19.74969934758099 22.87625405844725 5.0
  17.6512937919005 24.159034659855509 5.0
  15.552888236220005 25.441815261263768 5.0
  13.454482680539515 26.724595862672027 5.0
  11.356077124859056 28.007376464080268 5.0
  9.257671569178588 29.290157065488527 5.0
  7.159266013498115 30.572937666896786 5.0
  5.06086045781759 31.85571826830506 5.0
  2.9624549021371324 33.1384988697133 5.0
  0.8640493464566603 34.421279471121568 5.0
  -1.2343562092238294 35.70406007252982 5.0
  -3.3327617649043228 36.98684067393808 5.0
  -5.431167320584812 38.26962127534634 5.0
  -7.5295728762652509 39.55240187675458 5.0
  -9.627978431945742 40.83518247816284 5.0
  -11.726383987626234 42.1179630795711 5.0
  10.677181209785945 0.9620854510561945 5.0
  8.578775654105485 2.244866052464435 5.0
  6.480370098425004 3.527646653872713 5.0
  4.3819645427445119 4.810427255280972 5.0
  2.28355898706402 6.093207856689232 5.0
  0.1851534313835721 7.375988458097491 5.0
  -1.91325212429693 8.658769059505732 5.0
  -4.011657679977422 9.94154966091399 5.0
  -6.11006323565787 11.22433026232225 5.0
  40.79547271484697 12.50711086373051 5.0
  38.697067159166468 13.78989146513875 5.0
  36.59866160348598 15.072672066547009 5.0
  34.50025604780553 16.35545266795527 5.0
  32.40185049212505 17.638233269363547 5.0
  30.30344493644456 18.921013870771806 5.0
  28.205039380764057 20.203794472180048 5.0
  26.106633825083607 21.486575073588307 5.0
  24.00822826940312 22.769355674996566 5.0
  21.909822713722627 24.052136276404825 5.0
  19.811417158042145 25.334916877813066 5.0
  17.713011602361694 26.617697479221325 5.0
  15.614606046681203 27.900478080629584 5.0
  13.516200491000714 29.18325868203784 5.0
  11.41779493532021 30.466039283446123 5.0
  9.319389379639773 31.74881988485436 5.0
  7.220983823959283 33.03160048626262 5.0
  5.12257826827879 34.31438108767088 5.0
  3.0241727125983006 35.59716168907914 5.0
  0.925767156917864 36.87994229048738 5.0
  -1.1726383987626293 38.16272289189564 5.0
  -3.27104395444308 39.445503493303899 5.0
  -5.369449510123616 40.72828409471216 5.0
  -7.467855065804063 42.011064696120417 5.0
  14.935710131608103 0.8551870676054937 5.0
  12.837304575927611 2.137967669013753 5.0
  10.738899020247122 3.420748270422012 5.0
  8.64049346456667 4.7035288718302719 5.0
  6.542087908886179 5.9863094732385309 5.0
  4.443682353205732 7.26909007464679 5.0
  2.3452767975251964 8.55187067605505 5.0
  0.2468712418447483 9.834651277463309 5.0
  -1.851534313835744 11.117431878871568 5.0
  -3.949939869516235 12.400212480279829 5.0
  -6.048345425196727 13.682993081688088 5.0
  -8.146750980877176 14.965773683096347 5.0
  38.75878496962765 16.248554284504608 5.0
  36.66037941394724 17.531334885912867 5.0
  34.56197385826666 18.814115487321126 5.0
  32.46356830258623 20.096896088729346 5.0
  30.365162746905747 21.379676690137605 5.0
  28.266757191225254 22.662457291545864 5.0
  26.16835163554476 23.945237892954123 5.0
  24.069946079864317 25.22801849436238 5.0
  21.971540524183824 26.510799095770645 5.0
  19.873134968503373 27.793579697178904 5.0
  17.77472941282288 29.07636029858716 5.0
  15.67632385714235 30.35914089999542 5.0
  13.577918301461857 31.64192150140368 5.0
  11.479512745781385 32.9247021028119 5.0
  9.381107190100895 34.20748270422016 5.0
  7.282701634420469 35.49026330562846 5.0
  5.184296078739976 36.773043907036718 5.0
  3.085890523059529 38.05582450844498 5.0
  0.9874849673790394 39.33860510985323 5.0
  -1.1109205883014113 40.621385711261499 5.0
  -3.20932614398199 41.90416631266975 5.0
  19.19423905343021 0.7482886841548117 5.0
  17.095833497749717 2.031069285563071 5.0
  14.99742794206931 3.3138498869713306 5.0
  12.89902238638882 4.596630488379589 5.0
  10.800616830708329 5.879411089787848 5.0
  8.702211275027836 7.162191691196108 5.0
  6.603805719347345 8.444972292604368 5.0
  4.505400163666853 9.727752894012627 5.0
  2.4069946079863619 11.010533495420886 5.0
  0.3085890523058916 12.293314096829107 5.0
  -1.7898165033745564 13.576094698237366 5.0
  -3.8882220590550489 14.858875299645627 5.0
  -5.986627614735497 16.141655901053885 5.0
  -8.085033170415989 17.424436502462144 5.0
  -10.183438726096436 18.707217103870407 5.0
  36.72209722440832 19.989997705278666 5.0
  34.62369166872785 21.27277830668696 5.0
  32.52528611304736 22.555558908095219 5.0
  30.426880557366937 23.83833950950344 5.0
  28.328475001686443 25.1211201109117 5.0
  26.23006944600599 26.40390071231996 5.0
  24.131663890325549 27.68668131372822 5.0
  22.03325833464501 28.969461915136479 5.0
  19.934852778964474 30.252242516544738 5.0
  17.836447223284023 31.535023117952997 5.0
  15.738041667603579 32.81780371936126 5.0
  13.639636111923043 34.100584320769517 5.0
  11.54123055624257 35.38336492217774 5.0
  9.442825000562167 36.666145523585999 5.0
  7.344419444881677 37.94892612499426 5.0
  5.246013889201183 39.231706726402517 5.0
  3.147608333520605 40.51448732781078 5.0
  1.0492027778402005 41.79726792921903 5.0
  23.452767975252379 0.6413903007041296 5.0
  21.35436241957189 1.924170902112389 5.0
  19.255956863891396 3.2069515035206486 5.0
  17.15755130821097 4.48973210492887 5.0
  15.059145752530501 5.772512706337166 5.0
  12.960740196850008 7.055293307745426 5.0
  10.862334641169428 8.338073909153686 5.0
  8.763929085489023 9.620854510561945 5.0
  6.665523529808532 10.903635111970204 5.0
  4.56711797412804 12.186415713378464 5.0
  2.4687124184475488 13.469196314786723 5.0
  0.3703068627671442 14.751976916194982 5.0
  -1.728098692913325 16.034757517603205 5.0
  -3.82650424859386 17.317538119011464 5.0
  -5.924909804274395 18.600318720419723 5.0
  -8.023315359954845 19.88309932182798 5.0
  -10.121720915635294 21.16587992323624 5.0
  -12.22012647131574 22.4486605246445 5.0
  34.68540947918906 23.731441126052759 5.0
  32.58700392350862 25.01422172746102 5.0
  30.488598367828165 26.29700232886928 5.0
  28.390192812147608 27.5797829302775 5.0
  26.291787256467115 28.86256353168576 5.0
  24.19338170078662 30.145344133094019 5.0
  22.09497614510622 31.428124734502278 5.0
  19.996570589425727 32.71090533591054 5.0
  17.89816503374521 33.99368593731884 5.0
  15.799759478064768 35.27646653872709 5.0
  13.701353922384314 36.559247140135358 5.0
  11.602948366703778 37.84202774154361 5.0
  9.50454281102327 39.12480834295183 5.0
  7.406137255342777 40.40758894436009 5.0
  5.307731699662373 41.69036954576835 5.0
  27.711296897074548 0.5344919172534477 5.0
  25.612891341394059 1.817272518661707 5.0
  23.514485785713565 3.1000531200699665 5.0
  21.41608023003316 4.382833721478225 5.0
  19.31767467435258 5.665614322886485 5.0
  17.21926911867209 6.948394924294744 5.0
  15.12086356299162 8.231175525702966 5.0
  13.022458007311173 9.513956127111225 5.0
  10.924052451630726 10.796736728519484 5.0
  8.82564689595019 12.079517329927743 5.0
  6.7272413402697419 13.362297931336004 5.0
  4.628835784589294 14.645078532744263 5.0
  2.5304302289087579 15.927859134152522 5.0
  0.4320246732282218 17.210639735560784 5.0
  -1.6663808824522466 18.493420336969078 5.0
  -3.7647864381326965 19.77620093837726 5.0
  -5.863191993813122 21.05898153978556 5.0
  -7.961597549493678 22.34176214119378 5.0
  -10.060003105174105 23.624542742602079 5.0
  -12.158408660854575 24.907323344010299 5.0
  -14.256814216535089 26.190103945418597 5.0
  32.64872173396969 27.47288454682682 5.0
  30.550316178289266 28.755665148235115 5.0
  28.451910622608794 30.038445749643338 5.0
  26.353505066928393 31.321226351051597 5.0
  24.255099511247836 32.60400695245989 5.0
  22.156693955567407 33.88678755386811 5.0
  20.058288399886935 35.16956815527641 5.0
  17.95988284420651 36.452348756684639 5.0
  15.861477288525869 37.73512935809293 5.0
  13.76307173284544 39.017909959501157 5.0
  11.664666177164968 40.30069056090945 5.0
  9.566260621484546 41.58347116231767 5.0
  31.969825818896653 0.42759353380280337 5.0
  29.871420263216206 1.7103741352109874 5.0
  27.773014707535756 2.993154736619322 5.0
  25.674609151855223 4.275935338027506 5.0
  23.576203596174687 5.558715939435765 5.0
  21.477798040494244 6.841496540844024 5.0
  19.379392484813793 8.124277142252284 5.0
  17.28098692913334 9.407057743660543 5.0
  15.182581373452806 10.689838345068802 5.0
  13.084175817772359 11.972618946477061 5.0
  10.985770262091912 13.255399547885322 5.0
  8.887364706411465 14.53818014929358 5.0
  6.788959150730841 15.82096075070184 5.0
  4.6905535950503929 17.1037413521101 5.0
  2.5921480393699456 18.386521953518359 5.0
  0.4937424836894966 19.669302554926618 5.0
  -1.6046630719910376 20.952083156334877 5.0
  -3.703068627671488 22.234863757743136 5.0
  -5.801474183351935 23.517644359151395 5.0
  -7.89987973903247 24.800424960559658 5.0
  -9.998285294713006 26.083205561967917 5.0
  -12.096690850393454 27.365986163376176 5.0
  -14.195096406073903 28.648766764784435 5.0
  -16.29350196175435 29.931547366192694 5.0
  30.61203398875041 31.214327967600878 5.0
  28.513628433069959 32.497108569009217 5.0
  26.4152228773896 33.77988917041739 5.0
  24.31681732170915 35.06266977182573 5.0
  22.218411766028614 36.345450373233919 5.0
  20.12000621034799 37.62823097464225 5.0
  18.021600654667635 38.911011576050437 5.0
  15.92319509898714 40.19379217745869 5.0
  13.824789543306647 41.47657277886695 5.0
  36.22835474071882 0.320695150352046 5.0
  34.12994918503838 1.6034757517603807 5.0
  32.03154362935784 2.8862563531685647 5.0
  29.93313807367739 4.1690369545768999 5.0
  27.83473251799686 5.451817555985083 5.0
  25.736326962316498 6.7345981573934179 5.0
  23.63792140663596 8.017378758801602 5.0
  21.539515850955384 9.300159360209861 5.0
  19.441110295274976 10.58293996161812 5.0
  17.342704739594397 11.865720563026379 5.0
  15.244299183914082 13.14850116443464 5.0
  13.145893628233589 14.431281765842899 5.0
  11.047488072553099 15.714062367251158 5.0
  8.949082516872606 16.99684296865942 5.0
  6.8506769611920259 18.279623570067679 5.0
  4.752271405511625 19.562404171475938 5.0
  2.6538658498310445 20.845184772884197 5.0
  0.5554602941506399 22.127965374292456 5.0
  -1.542945261529896 23.41074597570064 5.0
  -3.641350817210343 24.693526577108974 5.0
  -5.739756372890879 25.976307178517158 5.0
  -7.838161928571151 27.25908777992549 5.0
  -9.936567484251729 28.54186838133375 5.0
  -12.034973039932308 29.82464898274201 5.0
  -14.133378595612714 31.107429584150269 5.0
  -16.231784151293249 32.39021018555845 5.0
  -18.33018970697361 33.672990786966789 5.0
  28.57534624353119 34.95577138837497 5.0
  26.476940687850744 36.2385519897833 5.0
  24.37853513217021 37.52133259119149 5.0
  22.28012957648984 38.80411319259982 5.0
  20.18172402080922 40.086893794008009 5.0
  18.083318465128686 41.36967439541635 5.0
  40.486883662541 0.21379676690136399 5.0
  38.38847810686042 1.4965773683096234 5.0
  36.29007255118001 2.7793579697178827 5.0
  34.19166699549943 4.062138571126142 5.0
  32.093261439819119 5.344919172534401 5.0
  29.99485588413862 6.627699773942661 5.0
  27.89645032845804 7.91048037535092 5.0
  25.79804477277764 9.193260976759179 5.0
  23.69963921709706 10.476041578167438 5.0
  21.601233661416658 11.758822179575697 5.0
  19.502828105736169 13.041602780983958 5.0
  17.40442255005567 14.324383382392217 5.0
  15.306016994375183 15.607163983800476 5.0
  13.20761143869469 16.889944585208736 5.0
  11.109205883014285 18.172725186616995 5.0
  9.010800327333707 19.455505788025254 5.0
  6.912394771653302 20.73828638943351 5.0
  4.8139892159727239 22.02106699084177 5.0
  2.715583660292319 23.30384759225003 5.0
  0.6171781046117832 24.586628193658215 5.0
  -1.4812274510685786 25.86940879506655 5.0
  -3.5796330067491128 27.152189396474733 5.0
  -5.6780385624296489 28.43496999788307 5.0
  -7.776444118110097 29.717750599291255 5.0
  -9.87484967379063 31.000531200699589 5.0
  -11.973255229470994 32.28331180210777 5.0
  -14.071660785151526 33.56609240351611 5.0
  -16.170066340831978 34.848873004924289 5.0
  -18.268471896512556 36.13165360633255 5.0
  -20.36687745219287 37.41443420774081 5.0
  26.538658498311976 38.69721480914907 5.0
  24.440252942631305 39.97999541055733 5.0
  22.341847386950989 41.262776011965588 5.0
  44.74541258436303 0.10689838345075738 5.0
  42.64700702868267 1.3896789848589413 5.0
  40.54860147300205 2.672459586267276 5.0
  38.450195917321689 3.95524018767546 5.0
  36.35179036164119 5.238020789083719 5.0
  34.25338480596071 6.520801390491979 5.0
  32.15497925028021 7.803581991900238 5.0
  30.05657369459972 9.086362593308497 5.0
  27.95816813891932 10.369143194716756 5.0
  25.85976258323874 11.651923796125015 5.0
  23.76135702755842 12.934704397533276 5.0
  21.662951471877933 14.217484998941535 5.0
  19.564545916197355 15.500265600349794 5.0
  17.466140360516819 16.783046201757978 5.0
  15.367734804836282 18.065826803166315 5.0
  13.26932924915592 19.348607404574499 5.0
  11.170923693475386 20.63138800598283 5.0
  9.072518137795026 21.914168607391017 5.0
  6.974112582114488 23.19694920879935 5.0
  4.875707026433954 24.479729810207535 5.0
  2.77730147075342 25.762510411615869 5.0
  0.6788959150728413 27.045291013024128 5.0
  -1.4195096406075188 28.32807161443231 5.0
  -3.5179151962879695 29.610852215840646 5.0
  -5.616320751968328 30.89363281724883 5.0
  -7.714726307648952 32.17641341865716 5.0
  -9.813131863329314 33.45919402006535 5.0
  -11.911537419009762 34.74197462147368 5.0
  -14.009942974690297 36.024755222881868 5.0
  -16.108348530370919 37.3075358242902 5.0
  -18.206754086051455 38.59031642569838 5.0
  -20.30515964173177 39.873097027106648 5.0
  -22.403565197412264 41.1558776285149 5.0
  47.584431865577958 0.035632794483562667 5.0
  45.48602630989747 1.3184133958918194 5.0
  43.38762075421699 2.601193997300076 5.0
  41.28921519853651 3.8839745987083336 5.0
  39.190809642856027 5.16675520011659 5.0
  37.092404087175548 6.449535801524847 5.0
  34.99399853149507 7.732316402933104 5.0
  32.89559297581459 9.01509700434136 5.0
  30.797187420134109 10.297877605749619 5.0
  28.69878186445363 11.580658207157877 5.0
  26.60037630877315 12.863438808566132 5.0
  24.50197075309267 14.146219409974389 5.0
  22.403565197412186 15.429000011382647 5.0
  20.305159641731707 16.711780612790905 5.0
  18.206754086051224 17.99456121419916 5.0
  16.10834853037074 19.277341815607416 5.0
  14.009942974690264 20.560122417015675 5.0
  11.911537419009785 21.842903018423927 5.0
  9.813131863329302 23.12568361983219 5.0
  7.7147263076488159 24.408464221240445 5.0
  5.616320751968333 25.691244822648707 5.0
  3.517915196287859 26.974025424056959 5.0
  1.4195096406073767 28.256806025465214 5.0
  -0.6788959150731024 29.539586626873473 5.0
  -2.7773014707535834 30.822367228281729 5.0
  -4.8757070264340609 32.10514782968998 5.0
  -6.974112582114541 33.38792843109824 5.0
  -9.072518137795023 34.6707090325065 5.0
  -11.170923693475505 35.95348963391476 5.0
  -13.269329249155984 37.23627023532301 5.0
  -15.36773480483647 38.51905083673127 5.0
  -17.466140360516954 39.80183143813953 5.0
  -19.564545916197429 41.084612039547788 5.0
  -21.662951471877905 42.36739264095604 5.0
  0.7406137255342776 1.2115150124411285 5.0
  -1.357791830146203 2.4942956138493974 5.0
  45.547744120358647 3.777076215257647 5.0
  43.44933856467817 5.059856816665906 5.0
  41.35093300899769 6.3426374180741569 5.0
  39.2525274533172 7.6254180194824159 5.0
  37.15412189763673 8.908198620890675 5.0
  35.05571634195626 10.190979222298934 5.0
  32.95731078627577 11.473759823707195 5.0
  30.85890523059528 12.756540425115443 5.0
  28.760499674914809 14.039321026523704 5.0
  26.662094119234334 15.322101627931952 5.0
  24.563688563553847 16.60488222934022 5.0
  22.46528300787336 17.88766283074847 5.0
  20.36687745219289 19.17044343215673 5.0
  18.26847189651243 20.45322403356498 5.0
  16.170066340831938 21.736004634973239 5.0
  14.07166078515144 23.018785236381509 5.0
  11.973255229470978 24.30156583778976 5.0
  9.874849673790506 25.58434643919802 5.0
  7.77644411811001 26.867127040606268 5.0
  5.678038562429517 28.149907642014527 5.0
  3.5796330067490418 29.432688243422779 5.0
  1.4812274510685768 30.715468844831045 5.0
  -0.61717810461192 31.998249446239297 5.0
  -2.7155836602924134 33.281030047647558 5.0
  -4.813989215972882 34.56381064905582 5.0
  -6.912394771653348 35.846591250464069 5.0
  -9.010800327333844 37.129371851872338 5.0
  -11.109205883014332 38.412152453280587 5.0
  -13.2076114386948 39.69493305468884 5.0
  -15.306016994375263 40.977713656097098 5.0
  -17.404422550055757 42.26049425750535 5.0
  4.999142647356416 1.104616628990437 5.0
  2.900737091675946 2.3873972303986967 5.0
  0.8023315359954757 3.6701778318069557 5.0
  -1.2960740196850158 4.952958433215234 5.0
  -3.3944795753655074 6.2357390346234748 5.0
  43.51105637513935 7.5185196360317338 5.0
  41.4126508194589 8.801300237439993 5.0
  39.3142452637784 10.084080838848252 5.0
  37.2158397080979 11.366861440256493 5.0
  35.11743415241744 12.649642041664752 5.0
  33.019028596736969 13.93242264307301 5.0
  30.92062304105645 15.21520324448127 5.0
  28.82221748537598 16.49798384588953 5.0
  26.723811929695516 17.780764447297789 5.0
  24.625406374015044 19.063545048706048 5.0
  22.52700081833457 20.34632565011431 5.0
  20.428595262654065 21.62910625152257 5.0
  18.3301897069736 22.911886852930807 5.0
  16.231784151293107 24.19466745433907 5.0
  14.133378595612616 25.477448055747329 5.0
  12.034973039932123 26.760228657155588 5.0
  9.936567484251676 28.043009258563847 5.0
  7.838161928571196 29.325789859972088 5.0
  5.739756372890724 30.608570461380347 5.0
  3.6413508172102029 31.891351062788624 5.0
  1.5429452615297557 33.174131664196888 5.0
  -0.555460294150727 34.45691226560512 5.0
  -2.6538658498312168 35.73969286701338 5.0
  -4.75227140551171 37.022473468421647 5.0
  -6.850676961192157 38.3052540698299 5.0
  -8.949082516872649 39.58803467123816 5.0
  -11.04748807255313 40.8708152726464 5.0
  -13.14589362823362 42.15359587405466 5.0
  9.257671569178596 0.9977182455397552 5.0
  7.1592660134981049 2.2804988469480147 5.0
  5.060860457817613 3.5632794483562737 5.0
  2.962454902137122 4.846060049764533 5.0
  0.8640493464566736 6.128840651172792 5.0
  -1.2343562092238179 7.411621252581051 5.0
  -3.3327617649043206 8.694401853989293 5.0
  -5.431167320584811 9.977182455397552 5.0
  41.47436862992008 11.25996305680581 5.0
  39.37596307423958 12.54274365821407 5.0
  37.27755751855909 13.825524259622329 5.0
  35.17915196287859 15.10830486103057 5.0
  33.08074640719814 16.39108546243883 5.0
  30.98234085151766 17.673866063847109 5.0
  28.883935295837217 18.956646665255368 5.0
  26.78552974015667 20.239427266663609 5.0
  24.687124184476219 21.522207868071868 5.0
  22.588718628795726 22.804988469480127 5.0
  20.49031307311524 24.087769070888386 5.0
  18.391907517434747 25.370549672296645 5.0
  16.29350196175431 26.653330273704886 5.0
  14.195096406073813 27.936110875113145 5.0
  12.096690850393366 29.218891476521404 5.0
  9.99828529471283 30.501672077929663 5.0
  7.899879739032382 31.78445267933792 5.0
  5.8014741833519 33.06723328074616 5.0
  3.70306862767141 34.35001388215442 5.0
  1.6046630719909168 35.632794483562687 5.0
  -0.49374248368953035 36.91557508497094 5.0
  -2.5921480393700309 38.19835568637918 5.0
  -4.690553595050481 39.48113628778744 5.0
  -6.788959150731014 40.7639168891957 5.0
  -8.887364706411463 42.04669749060396 5.0
  13.516200491000714 0.8908198620890543 5.0
  11.417794935320222 2.1736004634973136 5.0
  9.31938937963973 3.456381064905573 5.0
  7.220983823959282 4.7391616663137949 5.0
  5.122578268278789 6.0219422677220539 5.0
  3.0241727125983415 7.304722869130313 5.0
  0.9257671569178063 8.58750347053861 5.0
  -1.1726383987626417 9.87028407194687 5.0
  -3.271043954443133 11.153064673355129 5.0
  -5.3694495101236259 12.435845274763388 5.0
  -7.467855065804117 13.718625876171647 5.0
  39.43768088470075 15.001406477579908 5.0
  37.339275329020278 16.28418707898813 5.0
  35.24086977333983 17.566967680396389 5.0
  33.142464217659298 18.849748281804648 5.0
  31.044058661978846 20.132528883212907 5.0
  28.94565310629836 21.415309484621166 5.0
  26.847247550617909 22.698090086029425 5.0
  24.748841994937416 23.980870687437684 5.0
  22.65043643925697 25.263651288845943 5.0
  20.552030883576479 26.5464318902542 5.0
  18.45362532789605 27.829212491662426 5.0
  16.355219772215557 29.111993093070685 5.0
  14.25681421653498 30.394773694478944 5.0
  12.158408660854488 31.6775542958872 5.0
  10.060003105174083 32.96033489729546 5.0
  7.961597549493593 34.24311549870372 5.0
  5.863191993813121 35.525896100112017 5.0
  3.764786438132628 36.80867670152028 5.0
  1.6663808824521809 38.09145730292854 5.0
  -0.4320246732282875 39.37423790433676 5.0
  -2.5304302289087809 40.657018505745018 5.0
  -4.628835784589359 41.93979910715328 5.0
  17.774729412822905 0.7839214786383724 5.0
  15.676323857142414 2.066702080046632 5.0
  13.57791830146192 3.349482681454891 5.0
  11.47951274578143 4.63226328286315 5.0
  9.381107190101025 5.91504388427141 5.0
  7.282701634420533 7.197824485679669 5.0
  5.184296078739976 8.48060508708789 5.0
  3.0858905230594848 9.76338568849615 5.0
  0.9874849673790367 11.04616628990441 5.0
  -1.1109205883014549 12.328946891312669 5.0
  -3.2093261439819029 13.611727492720928 5.0
  -5.307731699662395 14.894508094129187 5.0
  -7.406137255342843 16.177288695537447 5.0
  -9.504542811023335 17.460069296945706 5.0
  37.40099313948156 18.742849898353965 5.0
  35.302587583801 20.025630499762188 5.0
  33.20418202812053 21.308411101170486 5.0
  31.105776472440036 22.591191702578745 5.0
  29.00737091675959 23.873972303987004 5.0
  26.908965361079095 25.156752905395263 5.0
  24.810559805398645 26.43953350680352 5.0
  22.712154249718158 27.72231410821178 5.0
  20.61374869403762 29.00509470962004 5.0
  18.51534313835717 30.287875311028299 5.0
  16.416937582676657 31.57065591243652 5.0
  14.31853202699617 32.85343651384478 5.0
  12.220126471315762 34.13621711525304 5.0
  10.121720915635273 35.418997716661298 5.0
  8.023315359954779 36.70177831806956 5.0
  5.924909804274289 37.98455891947782 5.0
  3.826504248593885 39.267339520886078 5.0
  1.7280986929133065 40.55012012229434 5.0
  -0.37030686276718685 41.83290072370259 5.0
  22.033258334645013 0.6770230951876526 5.0
  19.93485277896456 1.959803696595912 5.0
  17.836447223284116 3.242584298004171 5.0
  15.738041667603577 4.5253648994124309 5.0
  13.639636111923107 5.808145500820728 5.0
  11.541230556242617 7.090926102228987 5.0
  9.442825000562128 8.373706703637247 5.0
  7.344419444881634 9.656487305045506 5.0
  5.246013889201165 10.939267906453728 5.0
  3.147608333520716 12.222048507861987 5.0
  1.049202777840268 13.504829109270246 5.0
  -1.049202777840268 14.787609710678505 5.0
  -3.147608333520716 16.070390312086766 5.0
  -5.246013889201163 17.353170913495025 5.0
  -7.344419444881698 18.635951514903284 5.0
  -9.442825000562234 19.918732116311543 5.0
  -11.541230556242683 21.2015127177198 5.0
  35.3643053942622 22.48429331912806 5.0
  33.265899838581777 23.767073920536285 5.0
  31.167494282901197 25.049854521944544 5.0
  29.069088727220796 26.3326351233528 5.0
  26.970683171540217 27.61541572476106 5.0
  24.872277615859809 28.89819632616932 5.0
  22.773872060179323 30.18097692757758 5.0
  20.67546650449883 31.463757528985839 5.0
  18.577060948818337 32.7465381303941 5.0
  16.478655393137936 34.029318731802359 5.0
  14.380249837457356 35.31209933321062 5.0
  12.281844281776948 36.594879934618877 5.0
  10.183438726096455 37.877660536027139 5.0
  8.085033170415965 39.16044113743539 5.0
  5.986627614735475 40.443221738843657 5.0
  3.888222059054982 41.72600234025191 5.0
  26.29178725646716 0.5701247117370083 5.0
  24.193381700786757 1.8529053131452676 5.0
  22.094976145106178 3.1356859145535269 5.0
  19.99657058942575 4.418466515961748 5.0
  17.898165033745216 5.7012471173700078 5.0
  15.799759478064768 6.984027718778267 5.0
  13.701353922384316 8.266808320186528 5.0
  11.602948366703784 9.549588921594787 5.0
  9.504542811023335 10.832369523003046 5.0
  7.406137255342886 12.115150124411305 5.0
  5.307731699662352 13.397930725819564 5.0
  3.2093261439819029 14.680711327227823 5.0
  1.110920588301477 15.963491928636044 5.0
  -0.9874849673791015 17.246272530044306 5.0
  -3.085890523059529 18.5290531314526 5.0
  -5.184296078740086 19.811833732860824 5.0
  -7.282701634420512 21.09461433426912 5.0
  -9.381107190100983 22.37739493567734 5.0
  -11.479512745781495 23.66017553708564 5.0
  -13.577918301461965 24.94295613849386 5.0
  33.32761764904288 26.225736739902119 5.0
  31.229212093362407 27.50851734131034 5.0
  29.130806537681985 28.791297942718637 5.0
  27.032400982001428 30.07407854412686 5.0
  24.933995426320999 31.356859145535159 5.0
  22.835589870640534 32.63963974694345 5.0
  20.737184314960019 33.92242034835167 5.0
  18.638778759279544 35.20520094975997 5.0
  16.54037320359912 36.48798155116819 5.0
  14.441967647918542 37.77076215257645 5.0
  12.343562092238113 39.05354275398467 5.0
  10.245156536557556 40.33632335539297 5.0
  8.146750980877134 41.61910395680119 5.0
  30.55031617828935 0.463226328286364 5.0
  28.451910622608904 1.746006929694548 5.0
  26.353505066928368 3.0287875311028076 5.0
  24.25509951124783 4.311568132511066 5.0
  22.156693955567385 5.594348733919325 5.0
  20.058288399886938 6.877129335327585 5.0
  17.9598828442064 8.159909936735846 5.0
  15.861477288525954 9.442690538144105 5.0
  13.763071732845504 10.725471139552364 5.0
  11.664666177165057 12.008251740960623 5.0
  9.56626062148452 13.291032342368882 5.0
  7.467855065804073 14.573812943777066 5.0
  5.3694495101235379 15.856593545185401 5.0
  3.2710439544430907 17.13937414659366 5.0
  1.1726383987625547 18.42215474800192 5.0
  -0.9257671569178925 19.704935349410179 5.0
  -3.0241727125983415 20.987715950818438 5.0
  -5.122578268278789 22.270496552226697 5.0
  -7.220983823959325 23.553277153634956 5.0
  -9.31938937963986 24.836057755043215 5.0
  -11.417794935320308 26.1188383564514 5.0
  -13.516200491000756 27.401618957859737 5.0
  -15.614606046681292 28.684399559267918 5.0
  31.290929903823643 29.967180160676255 5.0
  29.192524348143107 31.249960762084439 5.0
  27.094118792462657 32.53274136349277 5.0
  24.99571323678212 33.81552196490095 5.0
  22.897307681101677 35.09830256630929 5.0
  20.79890212542114 36.38108316771747 5.0