Final structure
  1.0
    49.00370676446299 0.0 0.0
    -24.501853382231496 42.438454937628289 0.0
    0.0 0.0 13.46023501784716
   C
  1588
Cartesian
  0.00021959968865070713 0.0002510734974525166 5.043127775778401
  46.90337744764737 1.2792969035215205 5.0426647231986829
  44.803774900722128 2.560036405658839 5.04147779741045
  42.70515560418284 3.8424789851485676 5.039687503612209
  40.60750229054458 5.126496881506842 5.037660223158133
  38.51059479616463 6.411767726394117 5.03621760608947
  36.413992760486518 7.697659028791635 5.0361614788440989
  34.317142409829809 8.983363590606692 5.037653325358106
  32.219617608073367 10.26812697892276 5.040074671007028
  30.12116226138413 11.551484161189944 5.042495200270889
  28.02171391424199 12.833226024483976 5.044303014641992
  25.921315494458005 14.113295876387724 5.0453245153944918
  23.82007665766906 15.391703787454125 5.04531853301596
  21.718233151511144 16.668664039948238 5.043492012899448
  19.616212719683149 17.944762231007748 5.0385891304912528
  17.51463157341162 19.220983300184927 5.029446413260052
  15.414097221386509 20.49848232187861 5.015684190209855
  13.315043328176677 21.77822088620451 4.998258997371415
  11.217572179744224 23.060647740819389 4.979382886035581
  9.1214972682768 24.345614180714234 4.9615603320503889
  7.026484166952416 25.63262591334124 4.9465646297669239
  4.932245441897846 26.921151366347254 4.935321022387121
  2.838522813383303 28.21075423657454 4.928351120823921
  0.7450054237116959 29.50099492874191 4.9259874002269259
  -1.348672735178635 30.79130892444242 4.928345089030427
  -3.4428489172413085 32.081148007832869 4.935285134334572
  -5.53778328687909 33.37003132141228 4.946427730839344
  -7.633780575764671 34.6575679932248 4.961213305317977
  -9.731198394379586 35.94329449550815 4.978723221748889
  -11.830349449150843 37.226733236049188 4.997230682755182
  -13.931300835156988 38.50766417698873 5.014289500734712
  -16.033729523673487 39.78637901874597 5.027719512912173
  -18.13703280863921 41.06367408999943 5.036550146669808
  -20.240542454220674 42.34063389475208 5.0411358955421099
  2.1581849175212577 1.1798186018364428 5.042651678266765
  0.05581394201998435 2.4588357934401174 5.042385515155647
  -2.04552664591998 3.7394967969056589 5.041144563340747
  44.85807686489801 5.021818423101979 5.039186966076474
  42.75926953273898 6.305708034305547 5.036751954618389
  40.66166868091986 7.590898876023745 5.034530534346259
  38.56490704220528 8.8769078609085 5.033459403468488
  36.46845569453566 10.1629890721484 5.034083673486508
  34.37180679796947 11.448350527688114 5.036171324552217
  32.27463696230502 12.732369196340292 5.0389142202025829
  30.176777367209306 14.014694023043534 5.041505198723606
  28.078143344094565 15.295186894182038 5.043505260518209
  25.978717649243639 16.573825106779827 5.044627683589369
  23.878569424420858 17.85075466117312 5.044286516562885
  21.777977652176895 19.12642230255587 5.041479501238659
  19.677483215942169 20.401612828641789 5.035082335329872
  17.57768909092769 21.6774187798515 5.024330680100797
  15.479016559522137 22.95497988925714 5.009379744461787
  13.381713346216357 24.235065217303665 4.991670559025587
  11.285673056536629 25.51793808474004 4.973561491351209
  9.190658983610426 26.803306915156634 4.95729694523264
  7.096422232744555 28.09063501940787 4.944301193917421
  5.002646565256292 29.37940380060227 4.935301310747497
  2.9091185248167337 30.669097031326957 4.930697443086406
  0.8154397498489452 31.95925880245521 4.930702798893938
  -1.2787078731031159 33.249309963647508 4.935320192907846
  -3.3736083581434039 34.53871066980075 4.944294505825083
  -5.469590498137071 35.82702796806252 4.957138644913913
  -7.567049554672403 37.11381713389438 4.973094805343976
  -9.666340204951134 38.39863345236396 4.990801508354441
  -11.767653409034708 39.681206020877727 5.008117656724002
  -13.870761593682828 40.961576110950307 5.022742958642421
  -15.975113765030948 42.240259979799358 5.033189601283688
  6.4218689795625629 1.0796506283787877 5.039192656736371
  4.317145757014783 2.35767801458693 5.041465020176183
  2.213075115010381 3.636750449712733 5.041169128254155
  0.11006188645562576 4.917372802302631 5.039337384833096
  -1.99155332883395 6.199690202562682 5.036550654117361
  -4.091589576565285 7.483634012305777 5.033171789909019
  42.81365264026761 8.768959666213565 5.029838277749634
  40.716492246186778 10.055243762473488 5.027522736260113
  38.620160721823179 11.341843159897943 5.0270394004085559
  36.524100049636867 12.627997654723052 5.028550599632423
  34.42792541638756 13.912994341107482 5.031523584599222
  32.33137833307548 15.19632730418611 5.035116698960498
  30.23429792205075 16.477688091023159 5.038610485385554
  28.136552641260168 17.75695591878658 5.041459194528823
  26.03807434680346 19.034223714529145 5.0430307720230209
  23.938990668042668 20.30983225007443 5.0424807683285499
  21.839707778131328 21.584433365178417 5.038890910807596
  19.74073015503795 22.858996577491256 5.03149233755171
  17.642573960364666 24.13461604576239 5.019967481068967
  15.545464374903773 25.412339339366118 5.004888298301965
  13.44947782763119 26.69275077357025 4.987929636172402
  11.354456375769676 27.975954941016288 4.97136494530479
  9.26017601255996 29.26161457854521 4.957146120058899
  7.166371429087647 30.54916597322531 4.946441755097689
  5.072794208185602 31.838011157906167 4.939824612898124
  2.9790966030840915 33.127655933706417 4.9375899819397379
  0.8849872526750602 34.417568613899238 4.939868490221906
  -1.2098788707728332 35.707192530738797 4.946565350479831
  -3.3058125653654288 36.99600456245072 4.957297694830049
  -5.403239576711197 38.28352031013078 4.971368348607157
  -7.502595979335787 39.56930137948868 4.987589245327201
  -9.604107785896531 40.853056244099779 5.004103324584856
  -11.707664262675884 42.13477582772007 5.018748406140691
  10.689077757960675 0.9763065467350636 5.029865841913808
  8.583131217159867 2.2551829733261097 5.036781251656288
  6.477080853983528 3.5337949676002409 5.039701744819955
  4.371550797347821 4.813044659767868 5.039382145750307
  2.267046297031368 6.0936193872753 5.036761833569701
  0.1640422231087495 7.375865928775484 5.032653573651603
  -1.9371790667203524 8.659849637855757 5.027714559977099
  -4.036548599028061 9.94537338355623 5.022723802766797
  -6.134240658035433 11.2320125259153 5.018727924197466
  40.77300736257258 12.519196034078 5.016730468890637
  38.67725281818071 13.806220311644605 5.01722177741078
  36.58175317816028 15.09237797216687 5.020000666386679
  34.486191718315357 16.377051188855174 5.024368910209802
  32.39035399786829 17.65975054091335 5.0294746963832559
  30.294018072764169 18.94018254110085 5.034485860949954
  28.197021854396774 20.218303867830384 5.038524597672765
  26.099379988713534 21.494347081823667 5.040659810425351
  24.001297923738627 22.768872475108727 5.040070637866637
  21.9032279397708 24.042701506563608 5.036151876750677
  19.805591773484374 25.316895447380316 5.028521019237177
  17.708735567909757 26.592519852507274 5.01719378316716
  15.612776821276008 27.870458174690947 5.002973491510399
  13.517694082822203 29.15117149002626 4.987578466266343
  11.423318962488584 30.43467155775814 4.973103836251679
  9.329441606342396 31.720551749977653 4.961232651890998
  7.235783826860349 33.00819737147968 4.952928072189172
  5.1420517590544 34.29700528181833 4.948659603968135
  3.0479415656315007 35.58644308406606 4.948680675477465
  0.9531324317188314 36.87596108540131 4.953061874523657
  -1.142742902364823 38.16499231302752 4.961570338077633
  -3.24009545713373 39.452983902903209 4.973574265830114
  -5.339402139017583 40.73944002399726 4.987949710746919
  -7.440960824721824 42.02402282284798 5.003004639553144
  14.957133818858571 0.8682365675264709 5.01674704230097
  12.851580850458886 2.149222551243558 5.02754006395815
  10.744910695301059 3.429010740253761 5.0345568208664199
  8.637899389729752 4.708265131859803 5.037693320931489
  6.531221053912155 5.987796465995648 5.0372791696835599
  4.425519754112888 7.268347492579358 5.0339046501050099
  2.321339731213291 8.550445574068993 5.028329706640589
  0.2190677234514169 9.834325372167776 5.021438989982505
  -1.8811175210842102 11.119916725406649 5.0142861457566278
  -3.9793674920499768 12.406860713962825 5.0081075539415409
  -6.076081915217823 13.694580827613774 5.004092537990587
  -8.171749549703036 14.982417614488826 5.002994494690132
  38.73682992071367 16.26974423626376 5.004920168883947
  36.64192864346674 17.555889118005397 5.009420006403753
  34.546992584106529 18.84025041777487 5.015718010932495
  32.4517296746405 20.122353231216026 5.022858486569417
  30.355941310724167 21.401916374979856 5.02970783437999
  28.25950906054169 22.679022280508386 5.035047691629332
  26.162527370067325 23.95407727398245 5.037881278674822
  24.06527013083967 25.22780526068226 5.03763723460739
  21.96813752834036 26.501173446364395 5.034050759576363
  19.871461379836846 27.77526101726958 5.027006865601288
  17.775475063943209 29.051046577179098 5.01671248879511
  15.680245809652846 30.329289607567718 5.004086254382858
  13.585679410427478 31.6103527893352 4.990806366912693
  11.491622768640358 32.894130283738189 4.978749918379531
  9.397834414709302 34.18015417354245 4.969338073084574
  7.304001021434772 35.46780058551647 4.963384843143538
  5.209857499647267 36.75644388650428 4.961338495629345
  3.1150802594811468 38.045532691603657 4.96343945637005
  1.0192870150284393 39.33448497842774 4.969632393972071
  -1.0779495953349745 40.622698278472608 4.979403247196529
  -3.177119950913621 41.90961028967495 4.991692944792887
  19.223302657485819 0.7563432816867027 5.004921599080567
  17.11959590699942 2.0396694630744189 5.01723932043151
  15.013929815913949 3.3213289040306099 5.027055410631212
  12.90695225052998 4.601729786515517 5.033471293135536
  10.799379383957437 5.881479098967885 5.036236525314093
  8.691964080631938 7.161254523722399 5.0354290625458459
  6.58539804158981 8.441787815088102 5.031293810549006
  4.480334177804246 9.72368541994329 5.024333349125751
  2.377238755910615 11.007319981817739 5.015445541535314
  0.2763679349979231 12.292769280160993 5.005917083122589
  -1.822365382664766 13.579807290662084 4.997239520267953
  -3.919349284443599 14.867898759782032 4.990807859719051
  -6.0150588014782369 16.15639843078534 4.987593275587438
  -8.110003002489032 17.444716807649333 4.987957528614957
  -10.204517561906446 18.732234272271108 4.991711926065813
  36.7048126746164 20.01832265111884 4.9983004512643609
  34.61029045387051 21.3023733067953 5.006891901378396
  32.515360106418139 22.58389500949669 5.016313615951737
  30.41985606516462 23.86270087568156 5.025080881683011
  28.323732034883347 25.138992106892454 5.031786341542947
  26.227139360721919 26.413335038829865 5.035563550460023
  24.13035709592257 27.68660209527219 5.036122595456842
  22.033724245554155 28.95983825489168 5.033424457589482
  19.93754211095117 30.234078160079826 5.027508386139007
  17.84198846168126 31.510230634038835 5.018732543083014
  15.74708175598214 32.78892915898205 5.008117273903841
  13.652701686556729 34.07039972441113 4.997252638420706
  11.558652298720955 35.3544362940347 4.987741672485129
  9.46463090093712 36.640552753411999 4.980756119817191
  7.370371267556067 37.92809818113524 4.977036477914309
  5.275577692641946 39.21645369886933 4.977039445000158
  3.1798716848816115 40.50502047452086 4.980907786331044
  1.08280548009013 41.79318502318786 4.988298617997376
  23.485719290329635 0.6418770331087653 4.998277004111054
  21.384586140386479 1.927488843632399 5.0094036329922029
  19.281184282456594 3.211317339231635 5.020005903212625
  17.175759290288299 4.493432243504949 5.028572795266267
  15.068872742836235 5.774180901908379 5.034105736790789
  12.961211107085266 7.054135658039094 5.036174589984092
  10.853483985200322 8.333965847107482 5.034686371560899
  8.746458278410258 9.614358056522998 5.029683360275328
  6.6408337906632159 10.895967618043683 5.021432696587095
  4.537182661980893 12.179236917734459 5.01071063673005
  2.4358160038432805 13.464356611526516 4.998903136010161
  0.33670652007468329 14.751220089634 4.987719271848342
  -1.7605099285998858 16.03941607553408 4.978742353402651
  -3.856306515031413 17.32833530776754 4.973109266003379
  -5.951182018277973 18.61739407720729 4.971381254101414
  -8.045481942704108 19.90601360822527 4.973592923968362
  -10.139535615821338 21.19362463894354 4.979424446496232
  -12.233618945240945 22.479592088093736 4.988312152649765
  34.67570507593109 23.763303115492194 4.99933442402101
  32.58079708118925 25.044309028326845 5.011041125615075
  30.485256045564115 26.32250464994452 5.02166659938759
  28.389101418298894 27.598211764960565 5.029762147182507
  26.292487901516425 28.87215339216681 5.034634709254542
  24.195712355880823 30.145299890728596 5.036187424975742
  22.099101365677883 31.418729193419169 5.034523285356079
  20.00295948329573 32.69343084665087 5.029850941775143
  17.907433453531298 33.970201893643068 5.022741089847533
  15.812503814504137 35.24951193395101 5.01430281569694
  13.71798469434746 36.53144786696802 5.005939519366243
  11.623625332795374 37.815743517197237 4.998925595258075
  9.529131546391352 39.10189672824868 4.99423424780719
  7.434247084286266 40.38925345096586 4.9925696672648149
  5.338606737347597 41.67717124365973 4.994309639715396
  27.743613075542819 0.5265564800565944 4.999327821633588
  25.64503078739438 1.813686619740776 5.006874855645736
  23.54437461081016 3.099526308106423 5.015695304116492
  21.441530814151766 4.3837263276147049 5.024351244391822
  19.33668867453204 5.666195089871029 5.031527504751505
  17.23030804038745 6.947152153646662 5.036199537464406
  15.122987177044822 8.227091888729554 5.037685991732169
  13.015429401845644 9.506689615975926 5.035606536581257
  10.90835029769037 10.786701973896138 5.029803706363829
  8.802515506391913 12.0678197016555 5.020398773909489
  6.698582308583215 13.350555878934707 5.008067070456542
  4.596918418026377 14.635175416355886 4.994223869954544
  2.4975467869556526 15.921639176929006 4.980731856401479
  0.4001602025199169 17.20964224843043 4.969319957254961
  -1.6957284708429832 18.498677728417595 4.961225555028712
  -3.7906085656459158 19.788186028094978 4.957147967449076
  -5.88480969047607 21.077597774411158 4.957310679351273
  -7.978677955946543 22.36638511273414 4.961586477840028
  -10.072508229225385 23.653970239816578 4.9696426955007999
  -12.166579220191269 24.939746895305495 4.980907554760266
  -14.261134024648936 26.223113998511857 4.994302748827973
  32.64735062634541 27.503675952551786 5.008103367801097
  30.551406374357705 28.781404717008259 5.020355644553149
  28.45476968779457 30.05676322300948 5.029630535649497
  26.35766165391264 31.330590885980976 5.035376735963591
  24.26041032637797 32.603959388312038 5.03765414647393
  22.163395838460418 33.87793692620348 5.036761686488835
  20.06693143312073 35.15342514895915 5.033184969262414
  17.971106745404407 36.43105329255523 5.027727153267067
  15.875827778542302 37.711106507101039 5.021457890296534
  13.780862502088159 38.99356330544851 5.015464295630057
  11.685964269627302 40.27812737144985 5.010712722948382
  9.590858370978112 41.56428272433791 5.0080556648002709
  31.99709396336777 0.4129037696235768 5.008117432814268
  29.900487145048737 1.7002219110122959 5.011037300685808
  27.802382340572728 2.9870980138795146 5.016299088756661
  25.702380677123295 4.272950600300306 5.022842820743098
  23.600345662707264 5.557352380869929 5.029453659401553
  21.496395282395715 6.840103040544234 5.035095646246508
  19.39090242995246 8.121236408222093 5.038915404550067
  17.284361612381866 9.401090915887816 5.0401042011706649
  15.177394229056008 10.680273861233817 5.0379125325829439
  13.070695779450875 11.959611396676028 5.031811769186363
  10.965004744033078 13.239925406391692 5.021692946522959
  8.861038361307529 14.521854939881117 5.008130816995787
  6.759272916807742 15.805738319827866 4.992568635120725
  4.659751426546434 17.09159478505042 4.977020063407772
  2.56223757596892 18.379150153298356 4.963366374881138
  0.4662673796679382 19.667991837753058 4.952913296740435
  -1.6286368072197313 20.957628412284426 4.946433732642068
  -3.722819518666947 22.247528262143974 4.9443068242975889
  -5.8165904959519099 23.537149686830096 4.946580433859944
  -7.910276326579821 24.825955786190784 4.953072649357005
  -10.004175070517509 26.1134138254325 4.963440417632476
  -12.098538209296765 27.398930514686545 4.97702804370543
  -14.193587298718527 28.681943664013656 4.992549402827275
  -16.289486616740267 29.962110820119976 5.008030136618889
  30.617425712347829 31.23949238879569 5.021385935242482
  28.51984406074354 32.5146968036935 5.031246696410267
  26.421779448944759 33.788704771392207 5.0372420161539399
  24.323681448870667 35.06263764109144 5.039680719479831
  22.225978210455126 36.33751398223371 5.039184881828352
  20.12892412734234 37.614078648517168 5.0365527506362419
  18.03253555837381 38.892735425636519 5.032667727111528
  15.936639295695543 40.17363653502597 5.028348865756143
  13.841037576791486 41.45668195065597 5.02433405673593
  36.24736833778479 0.30309246378766865 5.021414987860156
  34.15163585365387 1.589231629907915 5.020382174836913
  32.05524194049173 2.8759313456542494 5.021675148378861
  29.957681595089747 4.162433463915663 5.025066753855995
  27.858483094207729 5.448134420177702 5.029693404233227
  25.757463786655494 6.732567933823311 5.03447711651614
  23.65467849972285 8.015477253435599 5.038592644826649
  21.55039770168763 9.296785217968818 5.041483718699687
  19.44501444241534 10.576611226821236 5.0424927911512509
  17.33905935650889 11.855380657995243 5.040676484990803
  15.233116361548895 13.133891031170096 5.035060802212482
  13.127918815126698 14.413087753983458 5.025091495530006
  11.024181792595018 15.693831373317176 5.011052652659448
  8.922472407203627 16.97662839732129 4.994309897374758
  6.8229217203832619 18.26159654383633 4.977027120564644
  4.725338156693885 19.54846272727141 4.961325811100629
  2.6292873442826556 20.836830770417195 4.948646006854909
  0.5343531413524705 22.126270416500917 4.939808772814789
  -1.5598403979863882 23.416330925314005 4.935300680367844
  -3.653551200394599 24.706463715147259 4.935338898152245
  -5.747171933507678 25.996144784426926 4.939878072565907
  -7.840969878918865 27.28483403870171 4.948682563086512
  -9.935246531948222 28.572055954431506 4.961329416074962
  -12.03021979428349 29.857247586522239 4.977010787371027
  -14.126121864603823 31.139873000504168 4.994199693260441
  -16.22313345387408 32.41964994934773 5.010677963779547
  -18.32121938117817 33.69676992773082 5.02430004023459
  28.583560531424508 34.972026028571459 5.033878673732024
  26.484258891182085 36.2465052538343 5.0393684962830929
  24.38511820446211 37.52134403137101 5.041460535930489
  22.286543691186507 38.79742851126178 5.041136506882951
  20.18871794918318 40.07525951302428 5.039346608637605
  18.091547715208333 41.35508214479614 5.036783334894691
  40.49676915634144 0.1984609666097553 5.033909969351081
  38.40052083180086 1.482176617150832 5.031273461941412
  36.30444173514775 2.767398964298649 5.029663890249646
  34.208130296690338 4.053488511755017 5.029791356384127
  32.11106990173842 5.339654181308275 5.031786140051153
  30.012751936242489 6.6251828885097059 5.035031498841271
  27.912899417831527 7.909569701515232 5.038520241151642
  25.811485024045564 9.192534626609728 5.041459198992467
  23.70867480545136 10.473953890732736 5.04349257400577
  21.604771269264078 11.753817335402804 5.044285931024516
  19.500154164343419 13.032331799153635 5.04303482743567
  17.39534317641312 14.310080073888383 5.038528977210688
  15.290937014549132 15.588051645658707 5.029708893624089
  13.187698254622424 16.86726935972019 5.016311893805542
  11.086192282707924 18.148554053223493 4.9993266012759369
  8.986713199424973 19.432209445813709 4.980892393618159
  6.889121106855606 20.71807501862636 4.963426569999678
  4.793025217041512 22.005700195555055 4.948672690839033
  2.6980440547408675 23.29464033095676 4.937572981573666
  0.6038426373528392 24.584516662750887 4.930683426037981
  -1.4898585189616576 25.87483582159873 4.928359019890292
  -3.5834062145861838 27.1650473134286 4.9307047663354839
  -5.67716381724933 28.45461977360491 4.937580796628826
  -7.77139803855516 29.743058738257618 4.948648897920862
  -9.866349504998047 31.029937648284088 4.96336072930557
  -11.962295159235268 32.314713258835208 4.980714497635186
  -14.05947999453592 33.596860340049378 4.998881551440999
  -16.15803025341131 34.876221454135229 5.015425758548933
  -18.25776036370639 36.15319452643928 5.02831444840752
  -20.35822304229896 37.42872956646982 5.036754699220267
  26.5448400024053 38.7040072492307 5.041169004030304
  24.444588488357295 39.98005214738529 5.042653513870599
  22.345045705511884 41.25754979828022 5.042389938986254
  44.74814531362889 0.09834130105575488 5.041189518641426
  42.650158071941408 1.3794139700161945 5.039393078385499
  40.55286785868518 2.66229053342941 5.037259239492922
  38.456143808254697 3.9467665319849565 5.035401621446446
  36.35967843631499 5.232351513064512 5.034674258091855
  34.26296097019962 6.5183036109010399 5.035586946987773
  32.16547144559767 7.803811223910441 5.0378759344855139
  30.066831548821886 9.088258533739316 5.040655189679701
  27.966905231690427 10.371301367163503 5.043040073424803
  25.86575147310003 11.652809067514238 5.044633178123989
  23.76353618809434 12.932733501917273 5.045318362664206
  21.660533956559016 14.211131202663477 5.044624743428034
  19.55710927276759 15.488366850561386 5.041454820771661
  17.45379892533969 16.765243535657317 5.034476830788264
  15.35127634286107 18.042868296943376 5.022844306228955
  13.250170304331843 19.322289316359578 5.006869838332006
  11.150839969446102 20.60416406917886 4.988280745015189
  9.053284776674982 21.88856346783122 4.969613942996923
  6.957189704925554 23.17510352793716 4.953055122985513
  4.862180215958686 24.463258342232309 4.939860844546726
  2.7679570947319069 25.75261143795835 4.93068928539651
  0.6742640151805901 27.042746217517516 4.925983243211151
  -1.4192650734237856 28.333164233892896 4.92598452370225
  -3.512962899721984 29.623270228304884 4.930678961623277
  -5.607173441188479 30.912570180579985 4.939805813025849
  -7.702128674465017 32.20063766347277 4.95290906182513
  -9.798100869776788 33.4870362909343 4.969303746853701
  -11.89543353480133 34.77123413496736 4.9876995788086779
  -13.99434713060754 36.05280369395629 5.005904949404595
  -16.09475308743351 37.33176680468319 5.021432171772769
  -18.196288526016184 38.60877755991735 5.032648639921253
  -20.29832863572173 39.88488464378678 5.039334271542236
  -22.40027221542812 41.16123839605812 5.042382628769424
  47.584244652201629 0.03285576946355156 5.045324515394443
  45.483846232471538 1.3129256214315215 5.044303014641962
  43.38439788530929 2.5946674846428556 5.042495200270899
  41.28594253861013 3.8780246670030165 5.040074671007051
  39.18841773686584 5.162788055231017 5.037653325358133
  37.091567386257469 6.448492617091693 5.036161478844119
  34.99496535043619 7.734383919514925 5.0362176060894809
  32.89805785628279 9.019654764305408 5.037660223158133
  30.80040454236241 10.303672660811129 5.039687503612229
  28.70178524612827 11.586115240132913 5.041477797410463
  26.60218269889494 12.86685474243654 5.042664723198741
  24.50163378267981 14.1459005723192 5.043127775778454
  22.40027221532552 15.423368187482616 5.0423826287694439
  20.29832863578767 16.699721939712555 5.039334271542229
  18.196288525985488 17.975829023574105 5.032648639921237
  16.094753087418789 19.252839778845734 5.021432171772683
  13.994347130642847 20.531802889516123 5.005904949404562
  11.895433534750806 21.81337244856625 4.9876995788085909
  9.79810086982288 23.097570292533374 4.96930374685372
  7.702128674432945 24.383968920075139 4.952909061825099
  5.607173441202567 25.672036402856706 4.939805813025821
  3.512962899707098 26.96133635529321 4.930678961623268
  1.419265073459659 28.25144234949019 4.92598452370227
  -0.6742640152453383 29.541860366111679 4.925983243211174
  -2.7679570946622045 30.83199514544489 4.930689285396515
  -4.862180216008051 32.12134824132434 4.9398608445467568
  -6.957189704914883 33.40950305555195 4.953055122985508
  -9.053284776635515 34.69604311564887 4.969613942996876
  -11.150839969518773 35.98044251435927 4.988280745015258
  -13.25017030425624 37.26231726711602 5.0068698383320229
  -15.351276342929112 38.5417382865692 5.022844306229025
  -17.453798925316414 39.8193630478685 5.0344768307883209
  -19.557109272745259 41.096239732889447 5.04145482077169
  -21.660533956651706 42.373475380940707 5.0446247434280579
  0.7383171942871523 1.2134181438342886 5.045318362664181
  -1.3638980910468153 2.4933425785061558 5.044633178123937
  45.53865491517681 3.7748502785763207 5.043040073424778
  43.43872859772865 5.057893112264527 5.040655189679634
  41.340088701238 6.342340421835305 5.037875934485461
  39.24259917635077 7.627848035114225 5.035586946987661
  37.14588171053013 8.913800132679534 5.034674258091772
  35.049416338313438 10.199385113995876 5.035401621446356
  32.95269228810202 11.483861112384224 5.037259239492852
  30.855402074716016 12.766737675884725 5.039393078385425
  28.75741483303915 14.047810344833965 5.0411895186413899
  26.658661059018898 15.32705678519076 5.042389938986266
  24.559118276019445 16.604554436164528 5.042653513870623
  22.45886676215425 17.880599334215224 5.041169004030347
  20.35822304218948 19.155877017111295 5.036754699220348
  18.257760363800466 20.43141205699297 5.028314448407578
  16.158030253348799 21.708385129415406 5.015425758548952
  14.059479994535744 22.987746243450436 4.998881551440996
  11.962295159305944 24.26989332462223 4.980714497635234
  9.866349504855786 25.554668935314333 4.9633607293055219
  7.77139803873672 26.841547845116066 4.948648897920878
  5.677163817057156 28.12998681004524 4.937580796628762
  3.5834062147734935 29.41955926992975 4.930704766335516
  1.4898585187834428 30.709770762030077 4.92835901989031
  -0.6038426371991861 32.00008992064793 4.930683426037947
  -2.698044054847248 33.28996625261285 4.937572981573655
  -4.793025216983823 34.57890638792662 4.9486726908389679
  -6.88912110688125 35.86653156486485 4.963426569999572
  -8.986713199430695 37.15239713773509 4.980892393618098
  -11.086192282668242 38.43605253019937 4.999326601275867
  -13.187698254705762 39.717337223900589 5.016311893805584
  -15.290937014415512 40.996554937694188 5.029708893624075
  -17.395343176585287 42.274526509792817 5.038528977210787
  5.001699218059254 1.1138198465564249 5.043034827435769
  2.8970821128444936 2.392334310595609 5.044285931024555
  0.793178576811441 3.6721977550924458 5.043492574005813
  -1.3096316417490058 4.953617019247518 5.041459198992503
  -3.4110460357210869 6.236581944420953 5.038520241151661
  43.492808210611389 7.520968757291726 5.035031498841276
  41.39449024481381 8.806497464636358 5.031786140051152
  39.29742985011489 10.092663134069327 5.0297913563841238
  37.20111841147796 11.378752681623336 5.029663890249621
  35.105039314927548 12.663975028691109 5.031273461941406
  33.00879099034583 13.947690679293876 5.033909969351
  30.91215904924099 15.229524438696024 5.036783334894627
  28.81498881530561 16.509347070481604 5.039346608637545
  26.717163073251649 17.787178072262138 5.0411365068828959
  24.618588560035609 19.063262552090273 5.041460535930419
  22.5194478732109 20.33810132975322 5.03936849628304
  20.420146233145567 21.612580554812728 5.033878673732047
  18.321219381027974 22.8878366559086 5.024300040234593
  16.223133454042725 24.164956634013774 5.010677963779669
  14.126121864430378 25.444733583134146 4.994199693260496
  12.030219794428957 26.72735899686447 4.977010787371136
  9.93524653184327 28.012550629154025 4.961329416074987
  7.84096987897145 29.29977254474698 4.9486825630865
  5.747171933499395 30.588461799103869 4.939878072565894
  3.6535512003888295 31.878142868340356 4.935338898152207
  1.5598403979884986 33.16827565820905 4.935300680367823
  -0.53435314132415 34.45833616696794 4.9398087728147319
  -2.6292873443400746 35.747775813144119 4.948646006854861
  -4.725338156595885 37.036143856151507 4.961325811100527
  -6.822921720496867 38.323010039762838 4.977027120564604
  -8.922472407078832 39.60797818607263 4.994309897374599
  -11.024181792735265 40.89077521031576 5.011052652659505
  -13.127918814956594 42.171518829359467 5.025091495529902
  9.268737020453593 1.0122606149070364 5.035060802212534
  7.162794026003747 2.290770987652405 5.04067648499082
  5.056838939511151 3.5695404192930249 5.042492791151279
  2.9514556808354519 4.8493664276798669 5.041483718699771
  0.8471748822573249 6.130674392651919 5.038592644826652
  -1.2556104041935532 7.413583711850251 5.034477116516267
  -3.356629712196942 8.698017225897776 5.029693404233218
  -5.455828212635909 9.98371818178462 5.025066753856113
  41.45031820599551 11.270220300364164 5.02167514837893
  39.35392429322346 12.556920015873516 5.020382174836938
  37.258191808789259 13.843059182129027 5.021414987860213
  35.16266918773477 15.127924632860257 5.024334056735874
  33.06706746874529 16.41097004844706 5.02834886575614
  30.971171206091087 17.69187115790631 5.032667727111462
  28.874782637127227 18.97052793496699 5.036552750636199
  26.777728554012023 20.24709260125994 5.039184881828264
  24.68002531555487 21.52196894246053 5.039680719479703
  22.58192731560556 22.795901812031486 5.037242016153825
  20.483862703570467 24.069909779916175 5.0312466964101179
  18.38628105229695 25.345114194597206 5.021385935242509
  16.28948661654958 26.622495763484705 5.008030136618817
  14.193587298875123 27.902662919414519 4.992549402827376
  12.098538209199309 29.18567606885671 4.97702804370545
  10.004175070559907 30.471192758060334 4.963440417632547
  7.910276326581162 31.75865079730482 4.953072649357045