Final structure
  1.0
    2.4592666090280987 0.0 0.0
    -1.2296333045140493 2.129787358097146 0.0
    0.0 0.0 13.373997015092414
   C
   4
Cartesian
  -8.580616063940348e-14 -1.9021739974418045e-13 4.999070148919558
  1.2296333045141353 0.7099291193659056 5.001437598840654
  1.9206858326015209e-14 1.4198582387314607 8.372559416251752
  -1.9198559316356685e-14 -3.041502622175141e-14 8.374926866172857
