Final structure
  1.0
    2.4592657947908349 0.0 0.0
    -1.2296328973954174 2.129786652946991 0.0
    0.0 0.0 13.373997015092414
   C
   4
Cartesian
  -3.7659369673026748e-17 -8.700232349623182e-19 4.998812682233492
  1.2296328973954174 0.7099288843156637 5.001170850870036
  0.0 1.4198577686313272 8.372826164222378
  5.039982768364454e-18 -8.709565365210907e-18 8.37518433285892
